(set-logic QF_S)
(declare-fun var0 () String)
(declare-fun var1 () Int)
(declare-fun var2 () Int)
(declare-fun var3 () String)
(declare-fun var4 () Int)
(declare-fun var5 () Int)
(declare-fun var6 () String)
(declare-fun var7 () String)
(assert (str.suffixof (str.substr var0 var1 var2) (str.at var3 var4)))
(assert (> var5 61))
(assert (< var2 var5))
(assert (str.prefixof (str.at var6 var4) (str.at var7 var2)))
(check-sat)